
  16    0


   0  10 2 3 4 5 6 7 12 13 14 15 
   8   3 11 10 9 
   6   2 9 8 
   9   1 8 
   4   1 8 
   4   1 8 
   9   1 8 
   4   1 16
   5   1 16
   2   1 16
   3   1 16
  10   1 16
   5   1 16
   9   1 16
   1   1 16
   0   0 
